/*********************************************
 * OPL 12.6.0.0 Data
 * Author: Adrian Rodriguez Bazaga, Pau Rodriguez Esmerats
 * Creation Date: 22/11/2017 at 18:56:20
 *********************************************/

nNurses=83;
maxConsec=2;
maxPresence=7;
maxHours=5;
minHours=1;
demand= [18 25 28 25 25 28 25 25 21 8 1 1 1 4 2 4 2 3 1 3 13 25 13 19  ];
